c clasp version 2.1.1
c Reading from p01.cnf
c Solving...
s UNSATISFIABLE

c Models        : 0     
c Time          : 7.337s (Solving: 6.93s 1st Model: 0.00s Unsat: 6.93s)
c CPU Time      : 7.320s
c Choices       : 109234
c Conflicts     : 44189
c Restarts      : 123    (Average: 359.25 Last: 4812)

c Variables     : 71160  (Eliminated: 21669 Frozen:    0)
c Constraints   : 63870  (Binary: 68.2% Ternary: 29.1% Other:  2.6%)
c Lemmas        : 44188  (Binary:  0.5% Ternary:  0.6% Other: 98.8%)
c   Conflict    : 44188  (Average Length: 56.2) 
c   Loop        : 0      (Average Length: 0.0) 
c   Other       : 0      (Average Length: 0.0)
c   Deleted     : 24123 
